NAME : dantzig42.3095.tour
COMMENT : Cost = 367_3095
COMMENT : Found by LKH [Keld Helsgaun] Thu Nov 16 17:33:43 2017
TYPE : TOUR
DIMENSION : 61
TOUR_SECTION
1
41
61
31
60
30
28
29
33
32
51
37
50
5
49
38
48
12
14
53
6
54
9
55
35
56
34
57
36
58
24
22
18
17
11
52
7
26
21
20
19
27
59
10
13
15
16
23
25
8
3
47
4
46
39
45
40
44
2
43
42
-1
EOF
